/* Objective function */
min: x1_4+ x2_5+ x3_6+ x4_7+ x1_8+ x2_8+ x3_8+ x4_8+ x2_9+ x3_9+ x4_9+ x3_10+ x4_10+ x1_12+ x2_12+ x3_12+ x4_12+ x2_13+ x3_13+ x4_13
;

/* Variable bounds */
- x3_6+x1_4+ x4_8+ x4_9+ x1_12+ x3_12+s_7>=1;
- x4_7+x1_4+ x1_8+ x4_8>=1;
- x2_8+x1_4+ x2_5+ x1_8>=1;
- x3_8+ x1_8+ x4_8+ x4_9+ x1_12+ x3_12+s_7>=1;
- x2_9+x1_4+ x2_5+ x1_8+ x4_8+ x4_9>=1;
- x3_9+ x1_8+ x1_12+ x3_12+s_7>=1;
- x3_10+ x1_8+ x1_12+ x3_12>=1;
- x4_10+ x4_9+s_7>=1;
- x2_12+x1_4+ x2_5+ x4_8+ x4_9+ x1_12>=1;
- x4_12+ x1_8+ x4_9+ x1_12+s_7>=1;
- x2_13+x1_4+ x2_5+ x4_8+ x4_9+ x1_12+ x3_12+ x3_13>=1;
- x4_13+ x1_8+ x4_9+ x1_12+ x3_12+ x3_13+s_7>=1;
-s_1+ x1_12+ x3_13+s_3>=1;
-s_2+x1_4+ x2_5+ x4_8+ x4_9+ x1_12+ x3_12+s_3>=1;
-s_4+ x1_8+ x4_9+ x1_12+ x3_12+s_3+s_7>=1;
-s_5+x1_4+ x1_8>=1;
-s_6+ x4_8+ x4_9>=1;
-s_8+ x1_8+ x1_12>=1;
-s_9+ x3_12+ x3_13>=1;
-s_10+ x3_13+s_3>=1;
x1_4>=1;
 x2_5>=1;
 x3_6>=1;
 x4_7>=1;
 x1_8>=1;
 x2_8>=1;
 x3_8>=1;
 x4_8>=1;
 x2_9>=1;
 x3_9>=1;
 x4_9>=1;
 x3_10>=1;
 x4_10>=1;
 x1_12>=1;
 x2_12>=1;
 x3_12>=1;
 x4_12>=1;
 x2_13>=1;
 x3_13>=1;
 x4_13>=1;
s_1=0;
s_2=0;
s_3=0;
s_4=0;
s_5=0;
s_6=0;
s_7=0;
s_8=0;
s_9=0;
s_10=0;
